************************************************************************
file with basedata            : md383_.bas
initial value random generator: 228501733
************************************************************************
projects                      :  1
jobs (incl. supersource/sink ):  22
horizon                       :  167
RESOURCES
  - renewable                 :  2   R
  - nonrenewable              :  2   N
  - doubly constrained        :  0   D
************************************************************************
PROJECT INFORMATION:
pronr.  #jobs rel.date duedate tardcost  MPM-Time
    1     20      0       25       11       25
************************************************************************
PRECEDENCE RELATIONS:
jobnr.    #modes  #successors   successors
   1        1          3           2   3   4
   2        3          3           8  11  15
   3        3          2           5   8
   4        3          3           6  13  21
   5        3          3           9  10  12
   6        3          2           7  10
   7        3          3          12  14  15
   8        3          2          14  21
   9        3          3          11  16  20
  10        3          2          15  17
  11        3          3          13  17  21
  12        3          1          18
  13        3          1          19
  14        3          2          16  20
  15        3          1          20
  16        3          1          17
  17        3          1          18
  18        3          1          19
  19        3          1          22
  20        3          1          22
  21        3          1          22
  22        1          0        
************************************************************************
REQUESTS/DURATIONS:
jobnr. mode duration  R 1  R 2  N 1  N 2
------------------------------------------------------------------------
  1      1     0       0    0    0    0
  2      1     3       9    5    4    7
         2     6       9    5    4    5
         3    10       8    4    3    4
  3      1     2       5    7    6    8
         2     2       4    9    5    8
         3     7       4    5    4    7
  4      1     2      10    9    7    6
         2     4       9    9    6    6
         3     9       9    8    5    5
  5      1     2       9    7    6    9
         2     7       5    4    5    5
         3    10       3    2    4    2
  6      1     5       5    9    6    6
         2     9       5    8    3    6
         3     9       5    9    2    6
  7      1     2       7    5    6    5
         2    10       6    4    6    4
         3    10       3    5    6    4
  8      1     7       7    8    2   10
         2     9       7    7    2    9
         3    10       6    7    1    9
  9      1     2       8    3    8    7
         2     6       7    2    5    6
         3     9       5    2    4    6
 10      1     2       3    7    6    7
         2     4       3    5    6    7
         3     5       2    2    3    6
 11      1     3       9    7    7    7
         2     5       6    6    5    4
         3     9       3    4    2    1
 12      1     1       5    3    7    5
         2     1       5    3    5    7
         3     5       2    3    3    4
 13      1     2       9   10    5    5
         2     3       8    9    3    4
         3     5       8    8    2    3
 14      1     2       3    7    6   10
         2     2       4    6    6   10
         3     9       2    6    3   10
 15      1     4       4    9    6    9
         2     8       3    9    6    8
         3     9       3    9    5    6
 16      1     5       6    4    5    5
         2     6       5    4    4    2
         3    10       4    4    3    2
 17      1     5       7    6    3    7
         2     6       5    4    2    6
         3     8       1    2    2    3
 18      1     2       1    3    2    6
         2     6       1    2    1    4
         3     6       1    2    2    3
 19      1     1       9    9    7    4
         2     2       9    5    6    4
         3     9       8    2    5    1
 20      1     6       6    8    2    5
         2     7       5    6    2    5
         3     8       1    3    1    5
 21      1     3       4    9    3    9
         2     5       4    6    2    8
         3    10       4    5    2    6
 22      1     0       0    0    0    0
************************************************************************
RESOURCEAVAILABILITIES:
  R 1  R 2  N 1  N 2
   22   29  104  139
************************************************************************
MAXIMAL LAGS:
from  to  type  delay
    1   22   ES      0
    1    2   ES      0
    2   22   ES      0
    1    3   ES      0
    3   22   ES      0
    1    4   ES      0
    4   22   ES      0
    1    5   ES      0
    5   22   ES      0
    1    6   ES      0
    6   22   ES      0
    1    7   ES      0
    7   22   ES      0
    1    8   ES      0
    8   22   ES      0
    1    9   ES      0
    9   22   ES      0
    1   10   ES      0
   10   22   ES      0
    1   11   ES      0
   11   22   ES      0
    1   12   ES      0
   12   22   ES      0
    1   13   ES      0
   13   22   ES      0
    1   14   ES      0
   14   22   ES      0
    1   15   ES      0
   15   22   ES      0
    1   16   ES      0
   16   22   ES      0
    1   17   ES      0
   17   22   ES      0
    1   18   ES      0
   18   22   ES      0
    1   19   ES      0
   19   22   ES      0
    1   20   ES      0
   20   22   ES      0
    1   21   ES      0
   21   22   ES      0
    1   22   ES      0
    2    8   SS     -4
    2    8   SE      2
    2    8   ES      1
    2    8   EE      0
    2   11   SS     -5
    2   11   SE    -11
    2   11   ES      2
    2   11   EE      9
    2   15   SS      2
    2   15   SE      6
    2   15   ES      7
    2   15   EE      3
    3    5   SS     -2
    3    5   SE    -10
    3    5   ES      9
    3    5   EE      8
    3    8   SS    -12
    3    8   SE      6
    3    8   ES    -12
    3    8   EE      0
    4    6   SS     10
    4    6   SE      8
    4    6   ES     -1
    4    6   EE     12
    4   13   SS     -9
    4   13   SE      7
    4   13   ES     -3
    4   13   EE    -12
    4   21   SS      3
    4   21   SE     -7
    4   21   ES     -5
    4   21   EE     -4
    5    9   SS      1
    5    9   SE     -9
    5    9   ES     -1
    5    9   EE     11
    5   10   SS    -11
    5   10   SE     -4
    5   10   ES     -9
    5   10   EE     10
    5   12   SS     11
    5   12   SE    -10
    5   12   ES      3
    5   12   EE    -11
    6    7   SS      4
    6    7   SE     -8
    6    7   ES      6
    6    7   EE     -8
    6   10   SS     -8
    6   10   SE    -11
    6   10   ES      6
    6   10   EE     -8
    7   12   SS     -2
    7   12   SE    -10
    7   12   ES     12
    7   12   EE     10
    7   14   SS     -6
    7   14   SE      7
    7   14   ES    -12
    7   14   EE    -12
    7   15   SS     -7
    7   15   SE      6
    7   15   ES     10
    7   15   EE     -1
    8   14   SS    -11
    8   14   SE    -10
    8   14   ES     11
    8   14   EE    -10
    8   21   SS     -3
    8   21   SE      2
    8   21   ES     -4
    8   21   EE      9
    9   11   SS      2
    9   11   SE     -7
    9   11   ES      7
    9   11   EE      6
    9   16   SS    -11
    9   16   SE     10
    9   16   ES     -1
    9   16   EE     -1
    9   20   SS     -2
    9   20   SE     -8
    9   20   ES     -5
    9   20   EE      3
   10   15   SS      4
   10   15   SE     -6
   10   15   ES     10
   10   15   EE      7
   10   17   SS    -12
   10   17   SE     -4
   10   17   ES      7
   10   17   EE      3
   11   13   SS     -1
   11   13   SE      3
   11   13   ES     10
   11   13   EE     12
   11   17   SS     -3
   11   17   SE     -2
   17   11   SE      0
   11   17   ES      0
   11   17   EE      5
   11   21   SS     -3
   11   21   SE     -3
   11   21   ES     -8
   11   21   EE      0
   12   18   SS     -5
   12   18   SE     -6
   12   18   ES     -6
   12   18   EE     -5
   13   19   SS     12
   13   19   SE      8
   13   19   ES      5
   13   19   EE      5
   14   16   SS     -3
   14   16   SE     11
   14   16   ES      1
   14   16   EE     -2
   14   20   SS    -10
   14   20   SE      6
   14   20   ES    -11
   14   20   EE     -6
   15   20   SS     10
   15   20   SE     -3
   15   20   ES      5
   15   20   EE     -6
   16   17   SS    -11
   16   17   SE      5
   16   17   ES     -8
   16   17   EE     -3
   17   18   SS    -10
   17   18   SE     -6
   17   18   ES    -11
   17   18   EE     -9
   18   19   SS      1
   18   19   SE    -11
   18   19   ES      0
   18   19   EE      9
************************************************************************
